Gurobi 12.0.3:   lim:time = 14400

  mip:bestbound = 1

Set parameter LogToConsole to value 1

  tech:outlev = 1

Set parameter Cuts to value 3

  cut:cuts = 3

Set parameter Presolve to value 2

  pre:solve = 2

Set parameter MIPFocus to value 2

  mip:focus = 2

Set parameter Symmetry to value 2

  mip:symmetry = 2

Set parameter InfUnbdInfo to value 1

Gurobi Optimizer version 12.0.3 build v12.0.3rc0 (win64 - Windows 11.0 (26100.2))



CPU model: 12th Gen Intel(R) Core(TM) i7-12700, instruction set [SSE2|AVX|AVX2]

Thread count: 12 physical cores, 20 logical processors, using up to 20 threads



Non-default parameters:

TimeLimit  14400

MIPFocus  2

Symmetry  2

Cuts  3

InfUnbdInfo  1

Presolve  2



Optimize a model with 274 rows, 454 columns and 2447 nonzeros

Model fingerprint: 0x550f7a7d

Model has 1 quadratic objective term

Model has 5 quadratic constraints

Variable types: 31 continuous, 423 integer (0 binary)

Coefficient statistics:

  Matrix range     [1e+00, 1e+05]

  QMatrix range    [1e+00, 1e+00]

  QLMatrix range   [1e+00, 1e+01]

  Objective range  [6e+00, 1e+02]

  QObjective range [2e+00, 2e+00]

  Bounds range     [1e+00, 1e+02]

  RHS range        [1e+00, 1e+05]

  QRHS range       [1e+02, 1e+02]

Presolve removed 35 rows and 78 columns

Presolve time: 0.06s

Presolved: 513 rows, 644 columns, 3531 nonzeros

Variable types: 68 continuous, 576 integer (481 binary)

Found heuristic solution: objective 324.9200000

Root relaxation presolve removed 17 rows and 0 columns

Root relaxation presolved: 368 rows, 521 columns, 3715 nonzeros





Root relaxation: objective 1.304378e+02, 40 iterations, 0.00 seconds (0.00 work units)



    Nodes    |    Current Node    |     Objective Bounds      |     Work

 Expl Unexpl |  Obj  Depth IntInf | Incumbent    BestBd   Gap | It/Node Time



     0     0  130.43778    0   29  324.92000  130.43778  59.9%     -    0s

H    0     0                     317.8100000  130.43778  59.0%     -    0s

H    0     0                     311.6700000  130.43778  58.1%     -    0s

     0     0  182.68143    0   36  311.67000  182.68143  41.4%     -    0s

H    0     0                     299.2500000  182.68143  39.0%     -    0s

     0     0  182.72000    0   50  299.25000  182.72000  38.9%     -    0s

     0     0  182.72000    0   37  299.25000  182.72000  38.9%     -    0s

H    0     0                     294.7200000  182.72000  38.0%     -    0s

H    0     0                     267.9200000  188.10034  29.8%     -    0s

     0     0  188.10034    0   20  267.92000  188.10034  29.8%     -    0s

H    0     0                     258.3800000  188.10034  27.2%     -    0s

H    0     0                     254.6700000  191.67174  24.7%     -    0s

H    0     0                     242.3400000  191.67174  20.9%     -    0s

     0     0  194.20000    0   20  242.34000  194.20000  19.9%     -    0s

     0     0  194.20000    0   19  242.34000  194.20000  19.9%     -    0s

     0     0  194.20000    0   29  242.34000  194.20000  19.9%     -    0s

     0     0  194.20000    0   41  242.34000  194.20000  19.9%     -    0s

     0     0  194.20000    0   33  242.34000  194.20000  19.9%     -    0s

     0     0  194.20000    0   24  242.34000  194.20000  19.9%     -    0s

     0     0  194.20000    0   43  242.34000  194.20000  19.9%     -    0s

     0     0  194.20000    0   43  242.34000  194.20000  19.9%     -    0s

     0     0  194.20000    0   59  242.34000  194.20000  19.9%     -    0s

     0     0  194.20000    0   58  242.34000  194.20000  19.9%     -    0s

     0     2  194.20000    0   58  242.34000  194.20000  19.9%     -    0s



Cutting planes:

  Learned: 21

  Gomory: 24

  Lift-and-project: 4

  Cover: 2

  Implied bound: 23

  Projected implied bound: 2

  Clique: 4

  MIR: 30

  StrongCG: 33

  Flow cover: 111

  Inf proof: 4

  Zero half: 60

  RLT: 59

  Relax-and-lift: 9



Explored 1565 nodes (15672 simplex iterations) in 0.97 seconds (0.75 work units)

Thread count was 20 (of 20 available processors)



Solution count 9: 242.34 254.67 258.38 ... 324.92



Optimal solution found (tolerance 1.00e-04)

Best objective 2.423400000000e+02, best bound 2.423400000000e+02, gap 0.0000%



AMPL MP initial flat model has 454 variables (0 integer, 423 binary);

Objectives: 1 quadratic; 

Constraints:  274 linear; 5 quadratic;



AMPL MP final model has 454 variables (0 integer, 423 binary);

Objectives: 1 quadratic; 

Constraints:  274 linear; 5 quadratic;





-----RESULTS INFO-----
running_time:  1
TC.best_bound:  242.34
TC:  242.34000000000003
MIP Gap (%):  1.1728030630685816e-14
=== Vehicle Routes ===
Vehicle 1: 0 → 1
Vehicle 1: 1 → 8
Vehicle 1: 5 → 15
Vehicle 1: 8 → 11
Vehicle 1: 11 → 5
Vehicle 2: 0 → 15
Vehicle 3: 0 → 15

=== Full Vehicle Routes ===
Vehicle 1: 0 → 1 → 8 → 11 → 5 → 0 (88<100)
Vehicle 2: 0 → 0 (0<100)
Vehicle 3: 0 → 0 (0<100)
Arc used by MRT line: y variables:
Customer assigment to PL: u variables:
2 11
3 8
4 11
6 11
7 11
Node is served by regular vehicle: g variables:
1
5
8
11
Customer assigment to Home delivery: gm variables:
1
5
Node total demands: ntd variables:
1 13 1
5 6 1
6 0 0
7 0 0
14 0 0
8 12 1
9 0 0
10 0 0
11 57 1
12 0 0
13 0 0
Customer's demand delivered to PL: l variables:
2
3
4
6
7
Lockers load <= capacity:
0 <= 71
12 <= 92
0 <= 73
0 <= 86
57 <= 79
0 <= 73
0 <= 82
